0 0 0 0
0 1 0 0
0 2 0 0
0 3 0 2
0 4 0 1
0 5 0 2
0 6 0 11
0 7 0 2
0 8 0 4
0 9 0 8
0 10 0 5
0 11 0 2
0 12 0 11
0 13 0 13
0 14 0 14
0 15 1 16
0 16 1 5
0 17 2 17
0 18 2 11
0 19 1 2
0 20 1 9
0 21 2 16
0 22 0 13
0 23 0 14
0 24 0 16
0 25 1 14
0 26 0 23
0 27 0 25
0 28 1 22
0 29 0 28
0 30 2 22
0 31 0 31
